# Objective value = 9
y_0_0_1 0
y_1_0_1 0
y_2_0_1 0
y_2_0_2 0
y_2_0_3 0
y_2_1_2 0
y_2_1_3 0
y_2_2_3 0
y_3_0_1 0
y_3_0_2 0
y_3_0_3 0
y_3_1_2 0
y_3_1_3 0
y_3_2_3 0
y_4_0_1 0
y_4_0_2 0
y_4_0_3 0
y_4_1_2 0
y_4_1_3 0
y_4_2_3 0
y_5_0_1 0
y_5_0_2 0
y_5_0_3 0
y_5_0_4 0
y_5_0_5 0
y_5_1_2 0
y_5_1_3 0
y_5_1_4 0
y_5_1_5 0
y_5_2_3 0
y_5_2_4 0
y_5_2_5 0
y_5_3_4 0
y_5_3_5 0
y_5_4_5 0
y_6_0_1 0
y_6_0_2 0
y_6_0_3 0
y_6_0_4 0
y_6_0_5 0
y_6_1_2 0
y_6_1_3 0
y_6_1_4 0
y_6_1_5 0
y_6_2_3 0
y_6_2_4 0
y_6_2_5 0
y_6_3_4 0
y_6_3_5 0
y_6_4_5 0
y_7_0_1 1
y_7_0_3 0
y_7_0_4 0
y_7_0_5 0
y_7_1_3 0
y_7_1_4 0
y_7_1_5 0
y_7_3_4 0
y_7_3_5 0
y_7_4_5 0
y_8_0_1 0
y_8_0_3 0
y_8_0_4 0
y_8_0_5 0
y_8_1_3 0
y_8_1_4 0
y_8_1_5 0
y_8_3_4 0
y_8_3_5 0
y_8_4_5 0
y_9_0_1 0
y_9_0_3 0
y_9_0_4 0
y_9_0_5 0
y_9_1_3 0
y_9_1_4 0
y_9_1_5 0
y_9_3_4 0
y_9_3_5 0
y_9_4_5 0
y_10_0_1 0
y_10_0_3 0
y_10_0_4 0
y_10_0_5 0
y_10_0_6 0
y_10_0_7 0
y_10_0_8 0
y_10_1_3 0
y_10_1_4 0
y_10_1_5 0
y_10_1_6 0
y_10_1_7 0
y_10_1_8 0
y_10_3_4 0
y_10_3_5 0
y_10_3_6 0
y_10_3_7 0
y_10_3_8 0
y_10_4_5 0
y_10_4_6 0
y_10_4_7 0
y_10_4_8 0
y_10_5_6 0
y_10_5_7 0
y_10_5_8 0
y_10_6_7 0
y_10_6_8 0
y_10_7_8 0
y_11_0_1 0
y_11_0_3 0
y_11_0_4 0
y_11_0_5 0
y_11_0_6 0
y_11_0_7 0
y_11_0_8 0
y_11_1_3 0
y_11_1_4 0
y_11_1_5 0
y_11_1_6 0
y_11_1_7 0
y_11_1_8 0
y_11_3_4 0
y_11_3_5 0
y_11_3_6 0
y_11_3_7 0
y_11_3_8 0
y_11_4_5 0
y_11_4_6 0
y_11_4_7 0
y_11_4_8 0
y_11_5_6 0
y_11_5_7 0
y_11_5_8 0
y_11_6_7 0
y_11_6_8 0
y_11_7_8 0
y_12_0_1 0
y_12_0_3 0
y_12_0_4 0
y_12_0_5 0
y_12_0_6 0
y_12_0_7 0
y_12_0_8 0
y_12_1_3 0
y_12_1_4 0
y_12_1_5 0
y_12_1_6 0
y_12_1_7 0
y_12_1_8 0
y_12_3_4 0
y_12_3_5 0
y_12_3_6 0
y_12_3_7 0
y_12_3_8 0
y_12_4_5 0
y_12_4_6 0
y_12_4_7 0
y_12_4_8 0
y_12_5_6 0
y_12_5_7 0
y_12_5_8 0
y_12_6_7 0
y_12_6_8 0
y_12_7_8 0
y_13_0_1 0
y_13_0_3 0
y_13_0_4 0
y_13_0_5 0
y_13_0_6 0
y_13_0_7 0
y_13_0_8 0
y_13_1_3 0
y_13_1_4 0
y_13_1_5 0
y_13_1_6 0
y_13_1_7 0
y_13_1_8 0
y_13_3_4 0
y_13_3_5 0
y_13_3_6 0
y_13_3_7 0
y_13_3_8 0
y_13_4_5 0
y_13_4_6 0
y_13_4_7 0
y_13_4_8 0
y_13_5_6 0
y_13_5_7 0
y_13_5_8 0
y_13_6_7 0
y_13_6_8 0
y_13_7_8 0
y_14_0_1 0
y_14_0_3 0
y_14_0_4 0
y_14_0_5 0
y_14_0_6 0
y_14_0_7 0
y_14_0_8 0
y_14_1_3 0
y_14_1_4 0
y_14_1_5 0
y_14_1_6 0
y_14_1_7 0
y_14_1_8 0
y_14_3_4 0
y_14_3_5 0
y_14_3_6 0
y_14_3_7 0
y_14_3_8 0
y_14_4_5 0
y_14_4_6 0
y_14_4_7 0
y_14_4_8 0
y_14_5_6 0
y_14_5_7 0
y_14_5_8 0
y_14_6_7 0
y_14_6_8 0
y_14_7_8 0
y_15_0_1 0
y_15_0_3 0
y_15_0_4 0
y_15_0_5 0
y_15_0_6 0
y_15_0_7 0
y_15_0_8 0
y_15_1_3 0
y_15_1_4 0
y_15_1_5 0
y_15_1_6 0
y_15_1_7 0
y_15_1_8 0
y_15_3_4 0
y_15_3_5 0
y_15_3_6 0
y_15_3_7 0
y_15_3_8 0
y_15_4_5 0
y_15_4_6 0
y_15_4_7 0
y_15_4_8 0
y_15_5_6 0
y_15_5_7 0
y_15_5_8 0
y_15_6_7 0
y_15_6_8 0
y_15_7_8 0
y_16_0_1 0
y_16_0_3 0
y_16_0_4 0
y_16_0_5 0
y_16_0_6 0
y_16_0_7 0
y_16_0_8 0
y_16_1_3 0
y_16_1_4 0
y_16_1_5 0
y_16_1_6 0
y_16_1_7 0
y_16_1_8 0
y_16_3_4 0
y_16_3_5 0
y_16_3_6 0
y_16_3_7 0
y_16_3_8 0
y_16_4_5 0
y_16_4_6 0
y_16_4_7 0
y_16_4_8 0
y_16_5_6 0
y_16_5_7 0
y_16_5_8 0
y_16_6_7 0
y_16_6_8 0
y_16_7_8 0
y_17_0_1 0
y_17_0_3 0
y_17_0_4 0
y_17_0_5 0
y_17_0_6 0
y_17_0_7 0
y_17_0_8 0
y_17_1_3 0
y_17_1_4 0
y_17_1_5 0
y_17_1_6 0
y_17_1_7 0
y_17_1_8 0
y_17_3_4 0
y_17_3_5 0
y_17_3_6 0
y_17_3_7 0
y_17_3_8 0
y_17_4_5 0
y_17_4_6 0
y_17_4_7 0
y_17_4_8 0
y_17_5_6 0
y_17_5_7 0
y_17_5_8 0
y_17_6_7 0
y_17_6_8 0
y_17_7_8 0
y_18_0_1 0
y_18_0_3 0
y_18_0_4 0
y_18_0_5 0
y_18_0_6 0
y_18_0_7 0
y_18_0_8 0
y_18_1_3 0
y_18_1_4 0
y_18_1_5 0
y_18_1_6 0
y_18_1_7 0
y_18_1_8 0
y_18_3_4 0
y_18_3_5 0
y_18_3_6 0
y_18_3_7 0
y_18_3_8 0
y_18_4_5 0
y_18_4_6 0
y_18_4_7 0
y_18_4_8 0
y_18_5_6 0
y_18_5_7 0
y_18_5_8 0
y_18_6_7 0
y_18_6_8 0
y_18_7_8 0
y_19_0_1 0
y_19_0_4 0
y_19_0_5 0
y_19_0_7 0
y_19_1_4 0
y_19_1_5 0
y_19_1_7 0
y_19_4_5 0
y_19_4_7 0
y_19_5_7 0
y_20_0_1 0
y_20_0_4 1
y_20_0_5 0
y_20_0_7 0
y_20_0_9 0
y_20_0_10 0
y_20_1_4 1
y_20_1_5 0
y_20_1_7 0
y_20_1_9 0
y_20_1_10 0
y_20_4_5 0
y_20_4_7 0
y_20_4_9 0
y_20_4_10 0
y_20_5_7 0
y_20_5_9 0
y_20_5_10 0
y_20_7_9 0
y_20_7_10 0
y_20_9_10 0
y_21_0_1 0
y_21_0_4 0
y_21_0_5 0
y_21_0_7 0
y_21_0_9 0
y_21_0_10 0
y_21_1_4 0
y_21_1_5 0
y_21_1_7 0
y_21_1_9 0
y_21_1_10 0
y_21_4_5 0
y_21_4_7 0
y_21_4_9 0
y_21_4_10 0
y_21_5_7 0
y_21_5_9 0
y_21_5_10 0
y_21_7_9 0
y_21_7_10 0
y_21_9_10 0
y_22_0_1 0
y_22_0_4 0
y_22_0_5 0
y_22_0_7 0
y_22_0_9 0
y_22_0_10 0
y_22_1_4 0
y_22_1_5 0
y_22_1_7 0
y_22_1_9 0
y_22_1_10 0
y_22_4_5 0
y_22_4_7 0
y_22_4_9 0
y_22_4_10 0
y_22_5_7 0
y_22_5_9 0
y_22_5_10 0
y_22_7_9 0
y_22_7_10 0
y_22_9_10 0
y_23_0_1 0
y_23_0_4 0
y_23_0_5 0
y_23_0_7 0
y_23_0_9 0
y_23_0_10 0
y_23_1_4 0
y_23_1_5 0
y_23_1_7 0
y_23_1_9 0
y_23_1_10 0
y_23_4_5 0
y_23_4_7 0
y_23_4_9 0
y_23_4_10 0
y_23_5_7 0
y_23_5_9 0
y_23_5_10 0
y_23_7_9 0
y_23_7_10 0
y_23_9_10 0
y_24_0_1 0
y_24_0_4 0
y_24_0_5 0
y_24_0_7 0
y_24_0_9 0
y_24_0_10 0
y_24_0_11 0
y_24_1_4 0
y_24_1_5 0
y_24_1_7 0
y_24_1_9 0
y_24_1_10 0
y_24_1_11 0
y_24_4_5 0
y_24_4_7 0
y_24_4_9 0
y_24_4_10 0
y_24_4_11 0
y_24_5_7 0
y_24_5_9 0
y_24_5_10 0
y_24_5_11 0
y_24_7_9 0
y_24_7_10 0
y_24_7_11 0
y_24_9_10 0
y_24_9_11 0
y_24_10_11 0
y_25_0_1 0
y_25_0_4 0
y_25_0_5 0
y_25_0_7 0
y_25_0_9 0
y_25_0_10 0
y_25_0_11 0
y_25_1_4 0
y_25_1_5 0
y_25_1_7 0
y_25_1_9 0
y_25_1_10 0
y_25_1_11 0
y_25_4_5 0
y_25_4_7 0
y_25_4_9 0
y_25_4_10 0
y_25_4_11 0
y_25_5_7 0
y_25_5_9 0
y_25_5_10 0
y_25_5_11 1
y_25_7_9 0
y_25_7_10 0
y_25_7_11 0
y_25_9_10 0
y_25_9_11 0
y_25_10_11 0
y_26_0_1 0
y_26_0_4 0
y_26_0_5 0
y_26_0_7 0
y_26_0_9 0
y_26_0_10 0
y_26_0_11 0
y_26_1_4 0
y_26_1_5 0
y_26_1_7 0
y_26_1_9 0
y_26_1_10 0
y_26_1_11 0
y_26_4_5 0
y_26_4_7 0
y_26_4_9 0
y_26_4_10 0
y_26_4_11 0
y_26_5_7 0
y_26_5_9 0
y_26_5_10 0
y_26_5_11 0
y_26_7_9 0
y_26_7_10 0
y_26_7_11 0
y_26_9_10 0
y_26_9_11 0
y_26_10_11 0
y_27_0_1 0
y_27_0_4 1
y_27_0_5 0
y_27_0_7 0
y_27_0_9 0
y_27_0_10 0
y_27_0_11 0
y_27_1_4 1
y_27_1_5 0
y_27_1_7 0
y_27_1_9 0
y_27_1_10 0
y_27_1_11 0
y_27_4_5 0
y_27_4_7 0
y_27_4_9 0
y_27_4_10 0
y_27_4_11 0
y_27_5_7 0
y_27_5_9 0
y_27_5_10 0
y_27_5_11 0
y_27_7_9 0
y_27_7_10 1
y_27_7_11 0
y_27_9_10 0
y_27_9_11 0
y_27_10_11 0
y_28_0_1 0
y_28_0_4 0
y_28_0_5 0
y_28_0_7 0
y_28_0_9 0
y_28_0_10 0
y_28_0_11 0
y_28_1_4 0
y_28_1_5 0
y_28_1_7 0
y_28_1_9 0
y_28_1_10 0
y_28_1_11 0
y_28_4_5 0
y_28_4_7 0
y_28_4_9 0
y_28_4_10 0
y_28_4_11 0
y_28_5_7 0
y_28_5_9 0
y_28_5_10 0
y_28_5_11 0
y_28_7_9 0
y_28_7_10 0
y_28_7_11 0
y_28_9_10 0
y_28_9_11 0
y_28_10_11 0
y_29_0_1 0
y_29_0_7 1
y_29_0_9 0
y_29_0_10 0
y_29_1_7 0
y_29_1_9 0
y_29_1_10 0
y_29_7_9 0
y_29_7_10 0
y_29_9_10 0
y_30_0_1 0
y_30_0_7 0
y_30_0_9 0
y_30_0_10 0
y_30_0_12 0
y_30_1_7 0
y_30_1_9 0
y_30_1_10 0
y_30_1_12 0
y_30_7_9 0
y_30_7_10 0
y_30_7_12 0
y_30_9_10 0
y_30_9_12 1
y_30_10_12 0
y_31_0_1 0
y_31_0_7 0
y_31_0_10 0
y_31_0_12 0
y_31_1_7 0
y_31_1_10 0
y_31_1_12 0
y_31_7_10 0
y_31_7_12 0
y_31_10_12 0
y_32_0_1 0
y_32_0_7 0
y_32_0_10 0
y_32_0_12 0
y_32_0_15 0
y_32_1_7 0
y_32_1_10 0
y_32_1_12 0
y_32_1_15 0
y_32_7_10 0
y_32_7_12 0
y_32_7_15 0
y_32_10_12 0
y_32_10_15 0
y_32_12_15 0
y_33_0_1 0
y_33_0_7 0
y_33_0_10 0
y_33_0_12 0
y_33_0_15 0
y_33_1_7 0
y_33_1_10 0
y_33_1_12 0
y_33_1_15 0
y_33_7_10 0
y_33_7_12 0
y_33_7_15 0
y_33_10_12 0
y_33_10_15 0
y_33_12_15 0
y_34_0_1 0
y_34_0_7 0
y_34_0_15 0
y_34_1_7 0
y_34_1_15 0
y_34_7_15 0
x_0_0_1 0
x_1_0_1 0
x_2_0_1 0
x_3_0_1 0
x_2_0_2 0
x_3_0_2 0
x_2_0_3 0
x_3_0_3 0
x_2_1_2 0
x_3_1_2 0
x_2_1_3 0
x_3_1_3 0
x_2_2_3 0
x_3_2_3 0
x_4_0_1 0
x_4_0_2 0
x_4_0_3 0
x_4_1_2 0
x_4_1_3 0
x_4_2_3 0
x_5_0_1 0
x_5_0_2 0
x_5_0_3 0
x_5_1_2 0
x_5_1_3 0
x_5_2_3 0
x_6_0_1 0
x_6_0_2 0
x_6_0_3 0
x_5_0_4 1
x_6_0_4 1
x_5_0_5 1
x_6_0_5 1
x_6_1_2 0
x_6_1_3 0
x_5_1_4 1
x_6_1_4 1
x_5_1_5 1
x_6_1_5 1
x_6_2_3 0
x_5_2_4 1
x_6_2_4 1
x_5_2_5 1
x_6_2_5 1
x_5_3_4 1
x_6_3_4 1
x_5_3_5 1
x_6_3_5 1
x_5_4_5 1
x_6_4_5 1
x_7_0_1 0
x_7_0_2 0
x_7_0_3 0
x_7_0_4 1
x_7_0_5 1
x_7_1_2 0
x_7_1_3 0
x_7_1_4 1
x_7_1_5 1
x_7_2_3 0
x_7_2_4 1
x_7_2_5 1
x_7_3_4 1
x_7_3_5 1
x_7_4_5 1
x_8_0_1 1
x_8_0_3 0
x_8_0_4 1
x_8_0_5 1
x_8_1_3 0
x_8_1_4 1
x_8_1_5 1
x_8_3_4 1
x_8_3_5 1
x_8_4_5 1
x_9_0_1 1
x_9_0_3 0
x_9_0_4 1
x_9_0_5 1
x_9_1_3 0
x_9_1_4 1
x_9_1_5 1
x_9_3_4 1
x_9_3_5 1
x_9_4_5 1
x_10_0_1 1
x_10_0_3 0
x_10_0_4 1
x_10_0_5 1
x_10_1_3 0
x_10_1_4 1
x_10_1_5 1
x_10_3_4 1
x_10_3_5 1
x_10_4_5 1
x_11_0_1 1
x_11_0_3 0
x_11_0_4 1
x_11_0_5 1
x_10_0_6 0
x_11_0_6 0
x_10_0_7 0
x_11_0_7 0
x_10_0_8 0
x_11_0_8 0
x_11_1_3 0
x_11_1_4 1
x_11_1_5 1
x_10_1_6 0
x_11_1_6 0
x_10_1_7 0
x_11_1_7 0
x_10_1_8 0
x_11_1_8 0
x_11_3_4 1
x_11_3_5 1
x_10_3_6 0
x_11_3_6 0
x_10_3_7 0
x_11_3_7 0
x_10_3_8 0
x_11_3_8 0
x_11_4_5 1
x_10_4_6 0
x_11_4_6 0
x_10_4_7 0
x_11_4_7 0
x_10_4_8 0
x_11_4_8 0
x_10_5_6 0
x_11_5_6 0
x_10_5_7 0
x_11_5_7 0
x_10_5_8 0
x_11_5_8 0
x_10_6_7 0
x_11_6_7 0
x_10_6_8 0
x_11_6_8 0
x_10_7_8 0
x_11_7_8 0
x_12_0_1 1
x_12_0_3 0
x_12_0_4 1
x_12_0_5 1
x_12_0_6 0
x_12_0_7 0
x_12_0_8 0
x_12_1_3 0
x_12_1_4 1
x_12_1_5 1
x_12_1_6 0
x_12_1_7 0
x_12_1_8 0
x_12_3_4 1
x_12_3_5 1
x_12_3_6 0
x_12_3_7 0
x_12_3_8 0
x_12_4_5 1
x_12_4_6 0
x_12_4_7 0
x_12_4_8 0
x_12_5_6 0
x_12_5_7 0
x_12_5_8 0
x_12_6_7 0
x_12_6_8 0
x_12_7_8 0
x_13_0_1 1
x_13_0_3 0
x_13_0_4 1
x_13_0_5 1
x_13_0_6 0
x_13_0_7 0
x_13_0_8 0
x_13_1_3 0
x_13_1_4 1
x_13_1_5 1
x_13_1_6 0
x_13_1_7 0
x_13_1_8 0
x_13_3_4 1
x_13_3_5 1
x_13_3_6 0
x_13_3_7 0
x_13_3_8 0
x_13_4_5 1
x_13_4_6 0
x_13_4_7 0
x_13_4_8 0
x_13_5_6 0
x_13_5_7 0
x_13_5_8 0
x_13_6_7 0
x_13_6_8 0
x_13_7_8 0
x_14_0_1 1
x_14_0_3 0
x_14_0_4 1
x_14_0_5 1
x_14_0_6 0
x_14_0_7 0
x_14_0_8 0
x_14_1_3 0
x_14_1_4 1
x_14_1_5 1
x_14_1_6 0
x_14_1_7 0
x_14_1_8 0
x_14_3_4 1
x_14_3_5 1
x_14_3_6 0
x_14_3_7 0
x_14_3_8 0
x_14_4_5 1
x_14_4_6 0
x_14_4_7 0
x_14_4_8 0
x_14_5_6 0
x_14_5_7 0
x_14_5_8 0
x_14_6_7 0
x_14_6_8 0
x_14_7_8 0
x_15_0_1 1
x_15_0_3 0
x_15_0_4 1
x_15_0_5 1
x_15_0_6 0
x_15_0_7 0
x_15_0_8 0
x_15_1_3 0
x_15_1_4 1
x_15_1_5 1
x_15_1_6 0
x_15_1_7 0
x_15_1_8 0
x_15_3_4 1
x_15_3_5 1
x_15_3_6 0
x_15_3_7 0
x_15_3_8 0
x_15_4_5 1
x_15_4_6 0
x_15_4_7 0
x_15_4_8 0
x_15_5_6 0
x_15_5_7 0
x_15_5_8 0
x_15_6_7 0
x_15_6_8 0
x_15_7_8 0
x_16_0_1 1
x_16_0_3 0
x_16_0_4 1
x_16_0_5 1
x_16_0_6 0
x_16_0_7 0
x_16_0_8 0
x_16_1_3 0
x_16_1_4 1
x_16_1_5 1
x_16_1_6 0
x_16_1_7 0
x_16_1_8 0
x_16_3_4 1
x_16_3_5 1
x_16_3_6 0
x_16_3_7 0
x_16_3_8 0
x_16_4_5 1
x_16_4_6 0
x_16_4_7 0
x_16_4_8 0
x_16_5_6 0
x_16_5_7 0
x_16_5_8 0
x_16_6_7 0
x_16_6_8 0
x_16_7_8 0
x_17_0_1 1
x_17_0_3 0
x_17_0_4 1
x_17_0_5 1
x_17_0_6 0
x_17_0_7 0
x_17_0_8 0
x_17_1_3 0
x_17_1_4 1
x_17_1_5 1
x_17_1_6 0
x_17_1_7 0
x_17_1_8 0
x_17_3_4 1
x_17_3_5 1
x_17_3_6 0
x_17_3_7 0
x_17_3_8 0
x_17_4_5 1
x_17_4_6 0
x_17_4_7 0
x_17_4_8 0
x_17_5_6 0
x_17_5_7 0
x_17_5_8 0
x_17_6_7 0
x_17_6_8 0
x_17_7_8 0
x_18_0_1 1
x_18_0_3 0
x_18_0_4 1
x_18_0_5 1
x_18_0_6 0
x_18_0_7 0
x_18_0_8 0
x_18_1_3 0
x_18_1_4 1
x_18_1_5 1
x_18_1_6 0
x_18_1_7 0
x_18_1_8 0
x_18_3_4 1
x_18_3_5 1
x_18_3_6 0
x_18_3_7 0
x_18_3_8 0
x_18_4_5 1
x_18_4_6 0
x_18_4_7 0
x_18_4_8 0
x_18_5_6 0
x_18_5_7 0
x_18_5_8 0
x_18_6_7 0
x_18_6_8 0
x_18_7_8 0
x_19_0_1 1
x_19_0_3 0
x_19_0_4 1
x_19_0_5 1
x_19_0_6 0
x_19_0_7 0
x_19_0_8 0
x_19_1_3 0
x_19_1_4 1
x_19_1_5 1
x_19_1_6 0
x_19_1_7 0
x_19_1_8 0
x_19_3_4 1
x_19_3_5 1
x_19_3_6 0
x_19_3_7 0
x_19_3_8 0
x_19_4_5 1
x_19_4_6 0
x_19_4_7 0
x_19_4_8 0
x_19_5_6 0
x_19_5_7 0
x_19_5_8 0
x_19_6_7 0
x_19_6_8 0
x_19_7_8 0
x_20_0_1 1
x_20_0_4 1
x_20_0_5 1
x_20_0_7 0
x_20_1_4 1
x_20_1_5 1
x_20_1_7 0
x_20_4_5 1
x_20_4_7 0
x_20_5_7 0
x_21_0_1 1
x_21_0_4 0
x_21_0_5 1
x_21_0_7 0
x_20_0_9 0
x_21_0_9 0
x_20_0_10 0
x_21_0_10 0
x_21_1_4 0
x_21_1_5 1
x_21_1_7 0
x_20_1_9 0
x_21_1_9 0
x_20_1_10 0
x_21_1_10 0
x_21_4_5 1
x_21_4_7 0
x_20_4_9 0
x_21_4_9 0
x_20_4_10 0
x_21_4_10 0
x_21_5_7 0
x_20_5_9 0
x_21_5_9 0
x_20_5_10 0
x_21_5_10 0
x_20_7_9 0
x_21_7_9 0
x_20_7_10 1
x_21_7_10 1
x_20_9_10 1
x_21_9_10 1
x_22_0_1 1
x_22_0_4 0
x_22_0_5 1
x_22_0_7 0
x_22_0_9 0
x_22_0_10 0
x_22_1_4 0
x_22_1_5 1
x_22_1_7 0
x_22_1_9 0
x_22_1_10 0
x_22_4_5 1
x_22_4_7 0
x_22_4_9 0
x_22_4_10 0
x_22_5_7 0
x_22_5_9 0
x_22_5_10 0
x_22_7_9 0
x_22_7_10 1
x_22_9_10 1
x_23_0_1 1
x_23_0_4 0
x_23_0_5 1
x_23_0_7 0
x_23_0_9 0
x_23_0_10 0
x_23_1_4 0
x_23_1_5 1
x_23_1_7 0
x_23_1_9 0
x_23_1_10 0
x_23_4_5 1
x_23_4_7 0
x_23_4_9 0
x_23_4_10 0
x_23_5_7 0
x_23_5_9 0
x_23_5_10 0
x_23_7_9 0
x_23_7_10 1
x_23_9_10 1
x_24_0_1 1
x_24_0_4 0
x_24_0_5 1
x_24_0_7 0
x_24_0_9 0
x_24_0_10 0
x_24_1_4 0
x_24_1_5 1
x_24_1_7 0
x_24_1_9 0
x_24_1_10 0
x_24_4_5 1
x_24_4_7 0
x_24_4_9 0
x_24_4_10 0
x_24_5_7 0
x_24_5_9 0
x_24_5_10 0
x_24_7_9 0
x_24_7_10 1
x_24_9_10 1
x_25_0_1 1
x_25_0_4 0
x_25_0_5 1
x_25_0_7 0
x_25_0_9 0
x_25_0_10 0
x_24_0_11 1
x_25_0_11 1
x_25_1_4 0
x_25_1_5 1
x_25_1_7 0
x_25_1_9 0
x_25_1_10 0
x_24_1_11 1
x_25_1_11 1
x_25_4_5 1
x_25_4_7 0
x_25_4_9 0
x_25_4_10 0
x_24_4_11 1
x_25_4_11 1
x_25_5_7 0
x_25_5_9 0
x_25_5_10 0
x_24_5_11 0
x_25_5_11 0
x_25_7_9 0
x_25_7_10 1
x_24_7_11 1
x_25_7_11 1
x_25_9_10 1
x_24_9_11 1
x_25_9_11 1
x_24_10_11 1
x_25_10_11 1
x_26_0_1 1
x_26_0_4 0
x_26_0_5 1
x_26_0_7 0
x_26_0_9 0
x_26_0_10 0
x_26_0_11 1
x_26_1_4 0
x_26_1_5 1
x_26_1_7 0
x_26_1_9 0
x_26_1_10 0
x_26_1_11 1
x_26_4_5 1
x_26_4_7 0
x_26_4_9 0
x_26_4_10 0
x_26_4_11 1
x_26_5_7 0
x_26_5_9 0
x_26_5_10 0
x_26_5_11 1
x_26_7_9 0
x_26_7_10 1
x_26_7_11 1
x_26_9_10 1
x_26_9_11 1
x_26_10_11 1
x_27_0_1 1
x_27_0_4 0
x_27_0_5 1
x_27_0_7 0
x_27_0_9 0
x_27_0_10 0
x_27_0_11 1
x_27_1_4 0
x_27_1_5 1
x_27_1_7 0
x_27_1_9 0
x_27_1_10 0
x_27_1_11 1
x_27_4_5 1
x_27_4_7 0
x_27_4_9 0
x_27_4_10 0
x_27_4_11 1
x_27_5_7 0
x_27_5_9 0
x_27_5_10 0
x_27_5_11 1
x_27_7_9 0
x_27_7_10 1
x_27_7_11 1
x_27_9_10 1
x_27_9_11 1
x_27_10_11 1
x_28_0_1 1
x_28_0_4 1
x_28_0_5 1
x_28_0_7 0
x_28_0_9 0
x_28_0_10 0
x_28_0_11 1
x_28_1_4 1
x_28_1_5 1
x_28_1_7 0
x_28_1_9 0
x_28_1_10 0
x_28_1_11 1
x_28_4_5 1
x_28_4_7 0
x_28_4_9 0
x_28_4_10 0
x_28_4_11 1
x_28_5_7 0
x_28_5_9 0
x_28_5_10 0
x_28_5_11 1
x_28_7_9 0
x_28_7_10 0
x_28_7_11 1
x_28_9_10 1
x_28_9_11 1
x_28_10_11 1
x_29_0_1 1
x_29_0_4 1
x_29_0_5 1
x_29_0_7 0
x_29_0_9 0
x_29_0_10 0
x_29_0_11 1
x_29_1_4 1
x_29_1_5 1
x_29_1_7 0
x_29_1_9 0
x_29_1_10 0
x_29_1_11 1
x_29_4_5 1
x_29_4_7 0
x_29_4_9 0
x_29_4_10 0
x_29_4_11 1
x_29_5_7 0
x_29_5_9 0
x_29_5_10 0
x_29_5_11 1
x_29_7_9 0
x_29_7_10 0
x_29_7_11 1
x_29_9_10 1
x_29_9_11 1
x_29_10_11 1
x_30_0_1 1
x_30_0_7 1
x_30_0_9 0
x_30_0_10 0
x_30_1_7 0
x_30_1_9 0
x_30_1_10 0
x_30_7_9 0
x_30_7_10 0
x_30_9_10 1
x_31_0_1 1
x_31_0_7 1
x_31_0_9 0
x_31_0_10 0
x_30_0_12 0
x_31_0_12 0
x_31_1_7 0
x_31_1_9 0
x_31_1_10 0
x_30_1_12 0
x_31_1_12 0
x_31_7_9 0
x_31_7_10 0
x_30_7_12 0
x_31_7_12 0
x_31_9_10 1
x_30_9_12 1
x_31_9_12 0
x_30_10_12 0
x_31_10_12 0
x_32_0_1 1
x_32_0_7 1
x_32_0_10 0
x_32_0_12 0
x_32_1_7 0
x_32_1_10 0
x_32_1_12 0
x_32_7_10 0
x_32_7_12 0
x_32_10_12 0
x_33_0_1 1
x_33_0_7 1
x_33_0_10 0
x_33_0_12 0
x_32_0_15 1
x_33_0_15 1
x_33_1_7 0
x_33_1_10 0
x_33_1_12 0
x_32_1_15 0
x_33_1_15 0
x_33_7_10 0
x_33_7_12 0
x_32_7_15 0
x_33_7_15 0
x_33_10_12 0
x_32_10_15 1
x_33_10_15 1
x_32_12_15 1
x_33_12_15 1
x_34_0_1 1
x_34_0_7 1
x_34_0_10 0
x_34_0_12 0
x_34_0_15 1
x_34_1_7 0
x_34_1_10 0
x_34_1_12 0
x_34_1_15 0
x_34_7_10 0
x_34_7_12 0
x_34_7_15 0
x_34_10_12 0
x_34_10_15 1
x_34_12_15 1
x_35_0_1 1
x_35_0_7 1
x_35_0_15 1
x_35_1_7 0
x_35_1_15 0
x_35_7_15 0
x_0_1_0 1
x_1_1_0 1
x_2_1_0 1
x_2_2_0 1
x_2_3_0 1
x_2_2_1 1
x_2_3_1 1
x_2_3_2 1
x_3_1_0 1
x_3_2_0 1
x_3_3_0 1
x_3_2_1 1
x_3_3_1 1
x_3_3_2 1
x_4_1_0 1
x_4_2_0 1
x_4_3_0 1
x_4_2_1 1
x_4_3_1 1
x_4_3_2 1
x_5_1_0 1
x_5_2_0 1
x_5_3_0 1
x_5_4_0 0
x_5_5_0 0
x_5_2_1 1
x_5_3_1 1
x_5_4_1 0
x_5_5_1 0
x_5_3_2 1
x_5_4_2 0
x_5_5_2 0
x_5_4_3 0
x_5_5_3 0
x_5_5_4 0
x_6_1_0 1
x_6_2_0 1
x_6_3_0 1
x_6_4_0 0
x_6_5_0 0
x_6_2_1 1
x_6_3_1 1
x_6_4_1 0
x_6_5_1 0
x_6_3_2 1
x_6_4_2 0
x_6_5_2 0
x_6_4_3 0
x_6_5_3 0
x_6_5_4 0
x_7_1_0 1
x_7_2_0 1
x_7_3_0 1
x_7_4_0 0
x_7_5_0 0
x_7_2_1 1
x_7_3_1 1
x_7_4_1 0
x_7_5_1 0
x_7_3_2 1
x_7_4_2 0
x_7_5_2 0
x_7_4_3 0
x_7_5_3 0
x_7_5_4 0
x_8_1_0 0
x_8_3_0 1
x_8_4_0 0
x_8_5_0 0
x_8_3_1 1
x_8_4_1 0
x_8_5_1 0
x_8_4_3 0
x_8_5_3 0
x_8_5_4 0
x_9_1_0 0
x_9_3_0 1
x_9_4_0 0
x_9_5_0 0
x_9_3_1 1
x_9_4_1 0
x_9_5_1 0
x_9_4_3 0
x_9_5_3 0
x_9_5_4 0
x_10_1_0 0
x_10_3_0 1
x_10_4_0 0
x_10_5_0 0
x_10_6_0 1
x_10_7_0 1
x_10_8_0 1
x_10_3_1 1
x_10_4_1 0
x_10_5_1 0
x_10_6_1 1
x_10_7_1 1
x_10_8_1 1
x_10_4_3 0
x_10_5_3 0
x_10_6_3 1
x_10_7_3 1
x_10_8_3 1
x_10_5_4 0
x_10_6_4 1
x_10_7_4 1
x_10_8_4 1
x_10_6_5 1
x_10_7_5 1
x_10_8_5 1
x_10_7_6 1
x_10_8_6 1
x_10_8_7 1
x_11_1_0 0
x_11_3_0 1
x_11_4_0 0
x_11_5_0 0
x_11_6_0 1
x_11_7_0 1
x_11_8_0 1
x_11_3_1 1
x_11_4_1 0
x_11_5_1 0
x_11_6_1 1
x_11_7_1 1
x_11_8_1 1
x_11_4_3 0
x_11_5_3 0
x_11_6_3 1
x_11_7_3 1
x_11_8_3 1
x_11_5_4 0
x_11_6_4 1
x_11_7_4 1
x_11_8_4 1
x_11_6_5 1
x_11_7_5 1
x_11_8_5 1
x_11_7_6 1
x_11_8_6 1
x_11_8_7 1
x_12_1_0 0
x_12_3_0 1
x_12_4_0 0
x_12_5_0 0
x_12_6_0 1
x_12_7_0 1
x_12_8_0 1
x_12_3_1 1
x_12_4_1 0
x_12_5_1 0
x_12_6_1 1
x_12_7_1 1
x_12_8_1 1
x_12_4_3 0
x_12_5_3 0
x_12_6_3 1
x_12_7_3 1
x_12_8_3 1
x_12_5_4 0
x_12_6_4 1
x_12_7_4 1
x_12_8_4 1
x_12_6_5 1
x_12_7_5 1
x_12_8_5 1
x_12_7_6 1
x_12_8_6 1
x_12_8_7 1
x_13_1_0 0
x_13_3_0 1
x_13_4_0 0
x_13_5_0 0
x_13_6_0 1
x_13_7_0 1
x_13_8_0 1
x_13_3_1 1
x_13_4_1 0
x_13_5_1 0
x_13_6_1 1
x_13_7_1 1
x_13_8_1 1
x_13_4_3 0
x_13_5_3 0
x_13_6_3 1
x_13_7_3 1
x_13_8_3 1
x_13_5_4 0
x_13_6_4 1
x_13_7_4 1
x_13_8_4 1
x_13_6_5 1
x_13_7_5 1
x_13_8_5 1
x_13_7_6 1
x_13_8_6 1
x_13_8_7 1
x_14_1_0 0
x_14_3_0 1
x_14_4_0 0
x_14_5_0 0
x_14_6_0 1
x_14_7_0 1
x_14_8_0 1
x_14_3_1 1
x_14_4_1 0
x_14_5_1 0
x_14_6_1 1
x_14_7_1 1
x_14_8_1 1
x_14_4_3 0
x_14_5_3 0
x_14_6_3 1
x_14_7_3 1
x_14_8_3 1
x_14_5_4 0
x_14_6_4 1
x_14_7_4 1
x_14_8_4 1
x_14_6_5 1
x_14_7_5 1
x_14_8_5 1
x_14_7_6 1
x_14_8_6 1
x_14_8_7 1
x_15_1_0 0
x_15_3_0 1
x_15_4_0 0
x_15_5_0 0
x_15_6_0 1
x_15_7_0 1
x_15_8_0 1
x_15_3_1 1
x_15_4_1 0
x_15_5_1 0
x_15_6_1 1
x_15_7_1 1
x_15_8_1 1
x_15_4_3 0
x_15_5_3 0
x_15_6_3 1
x_15_7_3 1
x_15_8_3 1
x_15_5_4 0
x_15_6_4 1
x_15_7_4 1
x_15_8_4 1
x_15_6_5 1
x_15_7_5 1
x_15_8_5 1
x_15_7_6 1
x_15_8_6 1
x_15_8_7 1
x_16_1_0 0
x_16_3_0 1
x_16_4_0 0
x_16_5_0 0
x_16_6_0 1
x_16_7_0 1
x_16_8_0 1
x_16_3_1 1
x_16_4_1 0
x_16_5_1 0
x_16_6_1 1
x_16_7_1 1
x_16_8_1 1
x_16_4_3 0
x_16_5_3 0
x_16_6_3 1
x_16_7_3 1
x_16_8_3 1
x_16_5_4 0
x_16_6_4 1
x_16_7_4 1
x_16_8_4 1
x_16_6_5 1
x_16_7_5 1
x_16_8_5 1
x_16_7_6 1
x_16_8_6 1
x_16_8_7 1
x_17_1_0 0
x_17_3_0 1
x_17_4_0 0
x_17_5_0 0
x_17_6_0 1
x_17_7_0 1
x_17_8_0 1
x_17_3_1 1
x_17_4_1 0
x_17_5_1 0
x_17_6_1 1
x_17_7_1 1
x_17_8_1 1
x_17_4_3 0
x_17_5_3 0
x_17_6_3 1
x_17_7_3 1
x_17_8_3 1
x_17_5_4 0
x_17_6_4 1
x_17_7_4 1
x_17_8_4 1
x_17_6_5 1
x_17_7_5 1
x_17_8_5 1
x_17_7_6 1
x_17_8_6 1
x_17_8_7 1
x_18_1_0 0
x_18_3_0 1
x_18_4_0 0
x_18_5_0 0
x_18_6_0 1
x_18_7_0 1
x_18_8_0 1
x_18_3_1 1
x_18_4_1 0
x_18_5_1 0
x_18_6_1 1
x_18_7_1 1
x_18_8_1 1
x_18_4_3 0
x_18_5_3 0
x_18_6_3 1
x_18_7_3 1
x_18_8_3 1
x_18_5_4 0
x_18_6_4 1
x_18_7_4 1
x_18_8_4 1
x_18_6_5 1
x_18_7_5 1
x_18_8_5 1
x_18_7_6 1
x_18_8_6 1
x_18_8_7 1
x_19_1_0 0
x_19_3_0 1
x_19_4_0 0
x_19_5_0 0
x_19_6_0 1
x_19_7_0 1
x_19_8_0 1
x_19_3_1 1
x_19_4_1 0
x_19_5_1 0
x_19_6_1 1
x_19_7_1 1
x_19_8_1 1
x_19_4_3 0
x_19_5_3 0
x_19_6_3 1
x_19_7_3 1
x_19_8_3 1
x_19_5_4 0
x_19_6_4 1
x_19_7_4 1
x_19_8_4 1
x_19_6_5 1
x_19_7_5 1
x_19_8_5 1
x_19_7_6 1
x_19_8_6 1
x_19_8_7 1
x_20_1_0 0
x_20_4_0 0
x_20_5_0 0
x_20_7_0 1
x_20_9_0 1
x_20_10_0 1
x_20_4_1 0
x_20_5_1 0
x_20_7_1 1
x_20_9_1 1
x_20_10_1 1
x_20_5_4 0
x_20_7_4 1
x_20_9_4 1
x_20_10_4 1
x_20_7_5 1
x_20_9_5 1
x_20_10_5 1
x_20_9_7 1
x_20_10_7 0
x_20_10_9 0
x_21_1_0 0
x_21_4_0 1
x_21_5_0 0
x_21_7_0 1
x_21_9_0 1
x_21_10_0 1
x_21_4_1 1
x_21_5_1 0
x_21_7_1 1
x_21_9_1 1
x_21_10_1 1
x_21_5_4 0
x_21_7_4 1
x_21_9_4 1
x_21_10_4 1
x_21_7_5 1
x_21_9_5 1
x_21_10_5 1
x_21_9_7 1
x_21_10_7 0
x_21_10_9 0
x_22_1_0 0
x_22_4_0 1
x_22_5_0 0
x_22_7_0 1
x_22_9_0 1
x_22_10_0 1
x_22_4_1 1
x_22_5_1 0
x_22_7_1 1
x_22_9_1 1
x_22_10_1 1
x_22_5_4 0
x_22_7_4 1
x_22_9_4 1
x_22_10_4 1
x_22_7_5 1
x_22_9_5 1
x_22_10_5 1
x_22_9_7 1
x_22_10_7 0
x_22_10_9 0
x_23_1_0 0
x_23_4_0 1
x_23_5_0 0
x_23_7_0 1
x_23_9_0 1
x_23_10_0 1
x_23_4_1 1
x_23_5_1 0
x_23_7_1 1
x_23_9_1 1
x_23_10_1 1
x_23_5_4 0
x_23_7_4 1
x_23_9_4 1
x_23_10_4 1
x_23_7_5 1
x_23_9_5 1
x_23_10_5 1
x_23_9_7 1
x_23_10_7 0
x_23_10_9 0
x_24_1_0 0
x_24_4_0 1
x_24_5_0 0
x_24_7_0 1
x_24_9_0 1
x_24_10_0 1
x_24_11_0 0
x_24_4_1 1
x_24_5_1 0
x_24_7_1 1
x_24_9_1 1
x_24_10_1 1
x_24_11_1 0
x_24_5_4 0
x_24_7_4 1
x_24_9_4 1
x_24_10_4 1
x_24_11_4 0
x_24_7_5 1
x_24_9_5 1
x_24_10_5 1
x_24_11_5 1
x_24_9_7 1
x_24_10_7 0
x_24_11_7 0
x_24_10_9 0
x_24_11_9 0
x_24_11_10 0
x_25_1_0 0
x_25_4_0 1
x_25_5_0 0
x_25_7_0 1
x_25_9_0 1
x_25_10_0 1
x_25_11_0 0
x_25_4_1 1
x_25_5_1 0
x_25_7_1 1
x_25_9_1 1
x_25_10_1 1
x_25_11_1 0
x_25_5_4 0
x_25_7_4 1
x_25_9_4 1
x_25_10_4 1
x_25_11_4 0
x_25_7_5 1
x_25_9_5 1
x_25_10_5 1
x_25_11_5 1
x_25_9_7 1
x_25_10_7 0
x_25_11_7 0
x_25_10_9 0
x_25_11_9 0
x_25_11_10 0
x_26_1_0 0
x_26_4_0 1
x_26_5_0 0
x_26_7_0 1
x_26_9_0 1
x_26_10_0 1
x_26_11_0 0
x_26_4_1 1
x_26_5_1 0
x_26_7_1 1
x_26_9_1 1
x_26_10_1 1
x_26_11_1 0
x_26_5_4 0
x_26_7_4 1
x_26_9_4 1
x_26_10_4 1
x_26_11_4 0
x_26_7_5 1
x_26_9_5 1
x_26_10_5 1
x_26_11_5 0
x_26_9_7 1
x_26_10_7 0
x_26_11_7 0
x_26_10_9 0
x_26_11_9 0
x_26_11_10 0
x_27_1_0 0
x_27_4_0 1
x_27_5_0 0
x_27_7_0 1
x_27_9_0 1
x_27_10_0 1
x_27_11_0 0
x_27_4_1 1
x_27_5_1 0
x_27_7_1 1
x_27_9_1 1
x_27_10_1 1
x_27_11_1 0
x_27_5_4 0
x_27_7_4 1
x_27_9_4 1
x_27_10_4 1
x_27_11_4 0
x_27_7_5 1
x_27_9_5 1
x_27_10_5 1
x_27_11_5 0
x_27_9_7 1
x_27_10_7 0
x_27_11_7 0
x_27_10_9 0
x_27_11_9 0
x_27_11_10 0
x_28_1_0 0
x_28_4_0 0
x_28_5_0 0
x_28_7_0 1
x_28_9_0 1
x_28_10_0 1
x_28_11_0 0
x_28_4_1 0
x_28_5_1 0
x_28_7_1 1
x_28_9_1 1
x_28_10_1 1
x_28_11_1 0
x_28_5_4 0
x_28_7_4 1
x_28_9_4 1
x_28_10_4 1
x_28_11_4 0
x_28_7_5 1
x_28_9_5 1
x_28_10_5 1
x_28_11_5 0
x_28_9_7 1
x_28_10_7 1
x_28_11_7 0
x_28_10_9 0
x_28_11_9 0
x_28_11_10 0
x_29_1_0 0
x_29_4_0 0
x_29_5_0 0
x_29_7_0 1
x_29_9_0 1
x_29_10_0 1
x_29_11_0 0
x_29_4_1 0
x_29_5_1 0
x_29_7_1 1
x_29_9_1 1
x_29_10_1 1
x_29_11_1 0
x_29_5_4 0
x_29_7_4 1
x_29_9_4 1
x_29_10_4 1
x_29_11_4 0
x_29_7_5 1
x_29_9_5 1
x_29_10_5 1
x_29_11_5 0
x_29_9_7 1
x_29_10_7 1
x_29_11_7 0
x_29_10_9 0
x_29_11_9 0
x_29_11_10 0
x_30_1_0 0
x_30_7_0 0
x_30_9_0 1
x_30_10_0 1
x_30_12_0 1
x_30_7_1 1
x_30_9_1 1
x_30_10_1 1
x_30_12_1 1
x_30_9_7 1
x_30_10_7 1
x_30_12_7 1
x_30_10_9 0
x_30_12_9 0
x_30_12_10 1
x_31_1_0 0
x_31_7_0 0
x_31_9_0 1
x_31_10_0 1
x_31_12_0 1
x_31_7_1 1
x_31_9_1 1
x_31_10_1 1
x_31_12_1 1
x_31_9_7 1
x_31_10_7 1
x_31_12_7 1
x_31_10_9 0
x_31_12_9 1
x_31_12_10 1
x_32_1_0 0
x_32_7_0 0
x_32_10_0 1
x_32_12_0 1
x_32_0_13 1
x_32_13_0 0
x_32_0_14 1
x_32_14_0 0
x_32_15_0 0
x_32_7_1 1
x_32_10_1 1
x_32_12_1 1
x_32_1_13 0
x_32_13_1 1
x_32_1_14 0
x_32_14_1 1
x_32_15_1 1
x_32_10_7 1
x_32_12_7 1
x_32_7_13 0
x_32_13_7 1
x_32_7_14 0
x_32_14_7 1
x_32_15_7 1
x_32_12_10 1
x_32_10_13 1
x_32_13_10 0
x_32_10_14 1
x_32_14_10 0
x_32_15_10 0
x_32_12_13 1
x_32_13_12 0
x_32_12_14 1
x_32_14_12 0
x_32_15_12 0
x_32_13_14 0
x_32_14_13 1
x_32_13_15 0
x_32_15_13 1
x_32_14_15 0
x_32_15_14 1
x_33_1_0 0
x_33_7_0 0
x_33_10_0 1
x_33_12_0 1
x_33_15_0 0
x_33_7_1 1
x_33_10_1 1
x_33_12_1 1
x_33_15_1 1
x_33_10_7 1
x_33_12_7 1
x_33_15_7 1
x_33_12_10 1
x_33_15_10 0
x_33_15_12 0
x_34_1_0 0
x_34_7_0 0
x_34_10_0 1
x_34_12_0 1
x_34_15_0 0
x_34_7_1 1
x_34_10_1 1
x_34_12_1 1
x_34_15_1 1
x_34_10_7 1
x_34_12_7 1
x_34_15_7 1
x_34_12_10 1
x_34_15_10 0
x_34_15_12 0
x_35_1_0 0
x_35_7_0 0
x_35_15_0 0
x_35_7_1 1
x_35_15_1 1
x_35_15_7 1
